2581136
54,45,42,21,14,15,16,26,8,44,57,52,61,50,34,38,36,67,35,27,30,20,51,62,7,58,49,43,9,17,56,32,13,37,40,29,11,41,0,46,1,47,19,3,64,12,53,60,23,4,31,2,59,55,39,24,28,18,22,48,5,65,25,10,63,6,66,33
